NAME original model
* Max problem is converted into Min one
ROWS
 N  OBJ
 G  hurdleConstr11
 G  hurdleConstr12
 G  hurdleConstr21
 G  hurdleConstr22
 G  hurdleConstr31
 G  hurdleConstr32
 G  hurdleConstr41
 G  hurdleConstr42
 G  hurdleConstr51
 G  hurdleConstr52
 G  marketShare1
 G  marketShare2
 G  marketShare3
 G  marketShare4
 G  marketShare5
 E  oneLevel11
 E  oneLevel12
 E  oneLevel21
 E  oneLevel22
 E  oneLevel31
 E  oneLevel32
 E  oneLevel41
 E  oneLevel42
COLUMNS
    MARKER    'MARKER'                 'INTORG'
    x111      hurdleConstr11  9.4763225685167030e-001
    x111      hurdleConstr21  2.2654742113172299e-001
    x111      hurdleConstr31  5.9442014439113255e-001
    x111      hurdleConstr41  4.2830868492969476e-001
    x111      hurdleConstr51  7.6414068655387002e-001
    x111      oneLevel11  1
    x112      hurdleConstr12  9.4763225685167030e-001
    x112      hurdleConstr22  2.2654742113172299e-001
    x112      hurdleConstr32  5.9442014439113255e-001
    x112      hurdleConstr42  4.2830868492969476e-001
    x112      hurdleConstr52  7.6414068655387002e-001
    x112      oneLevel12  1
    x121      hurdleConstr11  2.8605916809427701e-003
    x121      hurdleConstr21  3.5742368128736168e-001
    x121      hurdleConstr31  9.0969488566390844e-001
    x121      hurdleConstr41  4.5608098545825282e-001
    x121      hurdleConstr51  9.8180270915832857e-001
    x121      oneLevel11  1
    x122      hurdleConstr12  2.8605916809427701e-003
    x122      hurdleConstr22  3.5742368128736168e-001
    x122      hurdleConstr32  9.0969488566390844e-001
    x122      hurdleConstr42  4.5608098545825282e-001
    x122      hurdleConstr52  9.8180270915832857e-001
    x122      oneLevel12  1
    x131      hurdleConstr11  8.6735699046021819e-001
    x131      hurdleConstr21  9.8602751140209333e-001
    x131      hurdleConstr31  9.2326670666642174e-001
    x131      hurdleConstr41  3.0369331396162802e-001
    x131      hurdleConstr51  8.4610349031755550e-001
    x131      oneLevel11  1
    x132      hurdleConstr12  8.6735699046021819e-001
    x132      hurdleConstr22  9.8602751140209333e-001
    x132      hurdleConstr32  9.2326670666642174e-001
    x132      hurdleConstr42  3.0369331396162802e-001
    x132      hurdleConstr52  8.4610349031755550e-001
    x132      oneLevel12  1
    x211      hurdleConstr11  1.2122196843639432e-001
    x211      hurdleConstr21  7.8557628549483016e-001
    x211      hurdleConstr31  2.5050505477100227e-001
    x211      hurdleConstr41  9.6029710153879289e-002
    x211      hurdleConstr51  9.4349103699953241e-001
    x211      oneLevel21  1
    x212      hurdleConstr12  1.2122196843639432e-001
    x212      hurdleConstr22  7.8557628549483016e-001
    x212      hurdleConstr32  2.5050505477100227e-001
    x212      hurdleConstr42  9.6029710153879289e-002
    x212      hurdleConstr52  9.4349103699953241e-001
    x212      oneLevel22  1
    x221      hurdleConstr11  8.2605014719732739e-001
    x221      hurdleConstr21  5.1832513374551836e-001
    x221      hurdleConstr31  8.7350041979820636e-001
    x221      hurdleConstr41  5.7837569010536705e-001
    x221      hurdleConstr51  4.5008450424473756e-001
    x221      oneLevel21  1
    x222      hurdleConstr12  8.2605014719732739e-001
    x222      hurdleConstr22  5.1832513374551836e-001
    x222      hurdleConstr32  8.7350041979820636e-001
    x222      hurdleConstr42  5.7837569010536705e-001
    x222      hurdleConstr52  4.5008450424473756e-001
    x222      oneLevel22  1
    x231      hurdleConstr11  6.8015697958745336e-001
    x231      hurdleConstr21  4.1942562131645522e-001
    x231      hurdleConstr31  6.4039346441119371e-001
    x231      hurdleConstr41  6.0865629192382653e-001
    x231      hurdleConstr51  1.0543410728218761e-001
    x231      oneLevel21  1
    x232      hurdleConstr12  6.8015697958745336e-001
    x232      hurdleConstr22  4.1942562131645522e-001
    x232      hurdleConstr32  6.4039346441119371e-001
    x232      hurdleConstr42  6.0865629192382653e-001
    x232      hurdleConstr52  1.0543410728218761e-001
    x232      oneLevel22  1
    x311      hurdleConstr11  9.6604458903603041e-001
    x311      hurdleConstr21  7.5870041268546784e-001
    x311      hurdleConstr31  6.7964183422623237e-001
    x311      hurdleConstr41  3.2934810381054125e-001
    x311      hurdleConstr51  2.6454883088476544e-002
    x311      oneLevel31  1
    x312      hurdleConstr12  9.6604458903603041e-001
    x312      hurdleConstr22  7.5870041268546784e-001
    x312      hurdleConstr32  6.7964183422623237e-001
    x312      hurdleConstr42  3.2934810381054125e-001
    x312      hurdleConstr52  2.6454883088476544e-002
    x312      oneLevel32  1
    x321      hurdleConstr11  8.0366038604577383e-001
    x321      hurdleConstr21  9.7282918969867005e-001
    x321      hurdleConstr31  2.8293811479013653e-001
    x321      hurdleConstr41  6.4907467298111832e-001
    x321      hurdleConstr51  2.6557509975383586e-001
    x321      oneLevel31  1
    x322      hurdleConstr12  8.0366038604577383e-001
    x322      hurdleConstr22  9.7282918969867005e-001
    x322      hurdleConstr32  2.8293811479013653e-001
    x322      hurdleConstr42  6.4907467298111832e-001
    x322      hurdleConstr52  2.6557509975383586e-001
    x322      oneLevel32  1
    x331      hurdleConstr11  1.8768914199228781e-001
    x331      hurdleConstr21  4.1904787348236094e-001
    x331      hurdleConstr31  6.6599890095752212e-001
    x331      hurdleConstr41  5.1741180022767563e-001
    x331      hurdleConstr51  8.5449251889380151e-001
    x331      oneLevel31  1
    x332      hurdleConstr12  1.8768914199228781e-001
    x332      hurdleConstr22  4.1904787348236094e-001
    x332      hurdleConstr32  6.6599890095752212e-001
    x332      hurdleConstr42  5.1741180022767563e-001
    x332      hurdleConstr52  8.5449251889380151e-001
    x332      oneLevel32  1
    x411      hurdleConstr11  1.7101130851153612e-001
    x411      hurdleConstr21  9.7815851563279754e-001
    x411      hurdleConstr31  3.0126372368080623e-001
    x411      hurdleConstr41  2.3244909398309099e-001
    x411      hurdleConstr51  7.9166369605170195e-001
    x411      oneLevel41  1
    x412      hurdleConstr12  1.7101130851153612e-001
    x412      hurdleConstr22  9.7815851563279754e-001
    x412      hurdleConstr32  3.0126372368080623e-001
    x412      hurdleConstr42  2.3244909398309099e-001
    x412      hurdleConstr52  7.9166369605170195e-001
    x412      oneLevel42  1
    x421      hurdleConstr11  8.8396980118321855e-001
    x421      hurdleConstr21  9.8729853406294765e-001
    x421      hurdleConstr31  1.6063610478192492e-002
    x421      hurdleConstr41  2.0449985039119190e-001
    x421      hurdleConstr51  6.4555886701225129e-001
    x421      oneLevel41  1
    x422      hurdleConstr12  8.8396980118321855e-001
    x422      hurdleConstr22  9.8729853406294765e-001
    x422      hurdleConstr32  1.6063610478192492e-002
    x422      hurdleConstr42  2.0449985039119190e-001
    x422      hurdleConstr52  6.4555886701225129e-001
    x422      oneLevel42  1
    x431      hurdleConstr11  5.1067201963882414e-001
    x431      hurdleConstr21  2.1032875035520848e-001
    x431      hurdleConstr31  3.0893407473095880e-001
    x431      hurdleConstr41  1.7607243902639902e-002
    x431      hurdleConstr51  6.4488554577083612e-001
    x431      oneLevel41  1
    x432      hurdleConstr12  5.1067201963882414e-001
    x432      hurdleConstr22  2.1032875035520848e-001
    x432      hurdleConstr32  3.0893407473095880e-001
    x432      hurdleConstr42  1.7607243902639902e-002
    x432      hurdleConstr52  6.4488554577083612e-001
    x432      oneLevel42  1
    y11       hurdleConstr11  -3.7905290274066812e+000
    y11       marketShare1  1
    y12       hurdleConstr12  -3.7905290274066812e+000
    y12       marketShare1  1
    y21       hurdleConstr21  -9.0618968452689197e-001
    y21       marketShare2  1
    y22       hurdleConstr22  -9.0618968452689197e-001
    y22       marketShare2  1
    y31       hurdleConstr31  -2.3776805775645302e+000
    y31       marketShare3  1
    y32       hurdleConstr32  -2.3776805775645302e+000
    y32       marketShare3  1
    y41       hurdleConstr41  -1.7132347397187790e+000
    y41       marketShare4  1
    y42       hurdleConstr42  -1.7132347397187790e+000
    y42       marketShare4  1
    y51       hurdleConstr51  -3.0565627462154801e+000
    y51       marketShare5  1
    y52       hurdleConstr52  -3.0565627462154801e+000
    y52       marketShare5  1
    z1        OBJ       -1
    z1        marketShare1  -1
    z2        OBJ       -1
    z2        marketShare2  -1
    z3        OBJ       -1
    z3        marketShare3  -1
    z4        OBJ       -1
    z4        marketShare4  -1
    z5        OBJ       -1
    z5        marketShare5  -1
    MARKER    'MARKER'                 'INTEND'
RHS
    RHS1      oneLevel11  1
    RHS1      oneLevel12  1
    RHS1      oneLevel21  1
    RHS1      oneLevel22  1
    RHS1      oneLevel31  1
    RHS1      oneLevel32  1
    RHS1      oneLevel41  1
    RHS1      oneLevel42  1
BOUNDS
 UP BND1      x111      1
 UP BND1      x112      1
 UP BND1      x121      1
 UP BND1      x122      1
 UP BND1      x131      1
 UP BND1      x132      1
 UP BND1      x211      1
 UP BND1      x212      1
 UP BND1      x221      1
 UP BND1      x222      1
 UP BND1      x231      1
 UP BND1      x232      1
 UP BND1      x311      1
 UP BND1      x312      1
 UP BND1      x321      1
 UP BND1      x322      1
 UP BND1      x331      1
 UP BND1      x332      1
 UP BND1      x411      1
 UP BND1      x412      1
 UP BND1      x421      1
 UP BND1      x422      1
 UP BND1      x431      1
 UP BND1      x432      1
 UP BND1      y11       1
 UP BND1      y12       1
 UP BND1      y21       1
 UP BND1      y22       1
 UP BND1      y31       1
 UP BND1      y32       1
 UP BND1      y41       1
 UP BND1      y42       1
 UP BND1      y51       1
 UP BND1      y52       1
 UP BND1      z1        1
 UP BND1      z2        1
 UP BND1      z3        1
 UP BND1      z4        1
 UP BND1      z5        1
ENDATA
